NAME MasterProb
ROWS
 N  OBJ
 L  c0      
 L  c1      
COLUMNS
    MARKER    'MARKER'                 'INTORG'
    X[0,0]    OBJ       2.3520000000000002e+02
    X[0,0]    c0        2.3520000000000002e+02
    X[0,0]    c1        1.0080000000000001e+02
    X[0,1]    OBJ       1568
    X[0,1]    c0        1568
    X[0,1]    c1        672
    X[0,2]    OBJ       313.6
    X[0,2]    c0        313.6
    X[0,2]    c1        134.4
    X[1,0]    OBJ       2.3520000000000002e+02
    X[1,0]    c0        2.3520000000000002e+02
    X[1,0]    c1        1.0080000000000001e+02
    X[1,1]    OBJ       1568
    X[1,1]    c0        1568
    X[1,1]    c1        672
    X[1,2]    OBJ       313.6
    X[1,2]    c0        313.6
    X[1,2]    c1        134.4
    X[2,0]    OBJ       2.3520000000000002e+02
    X[2,0]    c0        2.3520000000000002e+02
    X[2,0]    c1        1.0080000000000001e+02
    X[2,1]    OBJ       1568
    X[2,1]    c0        1568
    X[2,1]    c1        672
    X[2,2]    OBJ       313.6
    X[2,2]    c0        313.6
    X[2,2]    c1        134.4
    X[3,0]    OBJ       2.3520000000000002e+02
    X[3,0]    c0        2.3520000000000002e+02
    X[3,0]    c1        1.0080000000000001e+02
    X[3,1]    OBJ       1568
    X[3,1]    c0        1568
    X[3,1]    c1        672
    X[3,2]    OBJ       313.6
    X[3,2]    c0        313.6
    X[3,2]    c1        134.4
    X[4,0]    OBJ       2.3520000000000002e+02
    X[4,0]    c0        2.3520000000000002e+02
    X[4,0]    c1        1.0080000000000001e+02
    X[4,1]    OBJ       1568
    X[4,1]    c0        1568
    X[4,1]    c1        672
    X[4,2]    OBJ       313.6
    X[4,2]    c0        313.6
    X[4,2]    c1        134.4
    U[0]      OBJ       12714.8
    U[0]      c0        12714.8
    U[0]      c1        5449.2
    U[1]      OBJ       44055.2
    U[1]      c0        44055.2
    U[1]      c1        18880.8
    U[2]      OBJ       15728.3
    U[2]      c0        15728.3
    U[2]      c1        6740.7
    U[3]      OBJ       15026.9
    U[3]      c0        15026.9
    U[3]      c1        6.4400999999999995e+03
    U[4]      OBJ       27412
    U[4]      c0        27412
    U[4]      c1        11748
    MARKER    'MARKER'                 'INTEND'
    eta       OBJ       1
RHS
    RHS1      c0        500000
    RHS1      c1        20000
BOUNDS
 LI BND1      X[0,0]    0
 LI BND1      X[0,1]    0
 LI BND1      X[0,2]    0
 LI BND1      X[1,0]    0
 LI BND1      X[1,1]    0
 LI BND1      X[1,2]    0
 LI BND1      X[2,0]    0
 LI BND1      X[2,1]    0
 LI BND1      X[2,2]    0
 LI BND1      X[3,0]    0
 LI BND1      X[3,1]    0
 LI BND1      X[3,2]    0
 LI BND1      X[4,0]    0
 LI BND1      X[4,1]    0
 LI BND1      X[4,2]    0
 BV BND1      U[0]    
 BV BND1      U[1]    
 BV BND1      U[2]    
 BV BND1      U[3]    
 BV BND1      U[4]    
 LO BND1      eta       -10000
ENDATA
